data;
param nombreJob := 6;
param nombreRessource := 3;
param duree := 1 4 2 10 3 7 4 1 5 7 6 3;
param capaciteRessource := 1 4 2 8 3 18;
param besoinRessource : 1 2 3 :=
                    1   2 4 4
                    2   4 5 10
                    3   2 2 10
                    4   1 2 2
                    5   4 1 8
                    6   1 6 2;
end;

